p tw 277 683
1 2
1 15
1 16
2 15
2 16
3 4
3 13
3 14
4 13
4 14
5 6
5 19
5 20
5 23
5 24
5 27
5 28
6 19
6 20
6 23
6 24
6 27
6 28
7 8
7 17
7 18
7 21
7 22
7 25
7 26
8 17
8 18
8 21
8 22
8 25
8 26
9 10
9 29
9 30
10 29
10 30
11 12
11 31
11 32
12 31
12 32
13 14
13 15
13 35
13 36
13 39
13 40
14 62
15 16
15 35
15 36
15 39
15 40
16 64
17 18
17 19
17 33
17 34
17 37
17 38
18 66
19 20
19 33
19 34
19 37
19 38
20 68
21 22
21 23
22 70
23 24
24 72
25 26
25 27
25 41
25 42
25 45
25 46
26 74
27 28
27 41
27 42
27 45
27 46
28 76
29 30
29 31
29 43
29 44
29 47
29 48
30 80
31 32
31 43
31 44
31 47
31 48
32 82
33 34
33 35
34 84
35 36
36 86
37 38
37 39
38 88
39 40
40 90
41 42
41 43
42 92
43 44
44 94
45 46
45 47
46 96
47 48
48 98
49 50
49 63
49 64
50 63
50 64
51 52
51 61
51 62
52 61
52 62
53 54
53 67
53 68
53 71
53 72
53 75
53 76
54 67
54 68
54 71
54 72
54 75
54 76
55 56
55 65
55 66
55 69
55 70
55 73
55 74
56 65
56 66
56 69
56 70
56 73
56 74
57 58
57 77
57 78
57 79
57 80
58 77
58 78
58 79
58 80
59 60
59 81
59 82
60 81
60 82
61 62
61 63
61 85
61 86
61 89
61 90
62 112
63 64
63 85
63 86
63 89
63 90
64 114
65 66
65 67
65 83
65 84
65 87
65 88
66 116
67 68
67 83
67 84
67 87
67 88
68 118
69 70
70 120
71 72
72 122
73 74
73 75
73 91
73 92
73 95
73 96
74 124
75 76
75 91
75 92
75 95
75 96
76 126
77 128
78 130
79 80
79 81
79 93
79 94
79 97
79 98
80 132
81 82
81 93
81 94
81 97
81 98
82 134
83 84
84 136
85 86
86 138
87 88
88 140
89 90
90 142
91 92
91 93
92 144
93 94
94 146
95 96
96 148
97 98
98 150
99 100
99 113
99 114
100 113
100 114
101 102
101 111
101 112
102 111
102 112
103 104
103 117
103 118
103 121
103 122
103 125
103 126
104 117
104 118
104 121
104 122
104 125
104 126
105 106
105 115
105 116
105 119
105 120
105 123
105 124
106 115
106 116
106 119
106 120
106 123
106 124
107 108
107 127
107 128
107 129
107 130
107 131
107 132
108 127
108 128
108 129
108 130
108 131
108 132
109 110
109 133
109 134
110 133
110 134
111 112
111 113
111 137
111 138
111 141
111 142
112 164
113 114
113 137
113 138
113 141
113 142
114 166
115 116
115 117
115 135
115 136
115 139
115 140
116 168
117 118
117 135
117 136
117 139
117 140
118 170
119 120
120 172
121 122
122 174
123 124
123 125
123 143
123 144
123 147
123 148
124 176
125 126
125 143
125 144
125 147
125 148
126 178
127 128
128 179
129 130
130 180
131 132
131 133
131 145
131 146
131 149
131 150
132 182
133 134
133 145
133 146
133 149
133 150
134 184
135 136
136 186
137 138
138 188
139 140
139 141
140 190
141 142
142 192
143 144
143 145
144 194
145 146
146 196
147 148
148 198
149 150
150 200
151 152
151 165
151 166
152 165
152 166
153 154
153 163
153 164
154 163
154 164
155 156
155 169
155 170
155 173
155 174
155 177
155 178
156 169
156 170
156 173
156 174
156 177
156 178
157 158
157 167
157 168
157 171
157 172
157 175
157 176
158 167
158 168
158 171
158 172
158 175
158 176
159 160
159 179
159 180
159 181
159 182
160 179
160 180
160 181
160 182
161 162
161 183
161 184
162 183
162 184
163 164
163 165
163 187
163 188
163 191
163 192
164 210
165 166
165 187
165 188
165 191
165 192
166 212
167 168
167 169
167 185
167 186
167 189
167 190
168 214
169 170
169 185
169 186
169 189
169 190
170 216
171 172
172 218
173 174
174 220
175 176
175 177
175 193
175 194
175 197
175 198
176 222
177 178
177 193
177 194
177 197
177 198
178 224
181 182
181 183
181 195
181 196
181 199
181 200
182 225
183 184
183 195
183 196
183 199
183 200
184 226
185 186
186 228
187 188
188 230
189 190
189 191
190 232
191 192
192 234
193 194
193 195
194 236
195 196
196 238
197 198
198 240
199 200
200 241
201 202
201 211
201 212
202 211
202 212
203 204
203 209
203 210
204 209
204 210
205 206
205 215
205 216
205 219
205 220
205 223
205 224
206 215
206 216
206 219
206 220
206 223
206 224
207 208
207 213
207 214
207 217
207 218
207 221
207 222
208 213
208 214
208 217
208 218
208 221
208 222
209 210
209 211
209 229
209 230
209 233
209 234
210 251
211 212
211 229
211 230
211 233
211 234
212 253
213 214
213 215
213 227
213 228
213 231
213 232
214 255
215 216
215 227
215 228
215 231
215 232
216 257
217 218
218 259
219 220
220 261
221 222
221 223
221 235
221 236
221 239
221 240
222 263
223 224
223 235
223 236
223 239
223 240
224 265
225 226
225 237
225 238
225 241
226 237
226 238
226 241
227 228
228 267
229 230
230 269
231 232
231 233
232 271
233 234
234 273
235 236
235 237
236 275
237 238
238 274
239 240
240 277
242 243
242 252
242 253
243 252
243 253
244 245
244 250
244 251
245 250
245 251
246 247
246 256
246 257
246 260
246 261
246 264
246 265
247 256
247 257
247 260
247 261
247 264
247 265
248 249
248 254
248 255
248 258
248 259
248 262
248 263
249 254
249 255
249 258
249 259
249 262
249 263
250 251
250 252
250 268
250 269
250 272
250 273
252 253
252 268
252 269
252 272
252 273
254 255
254 256
254 266
254 267
254 270
254 271
256 257
256 266
256 267
256 270
256 271
258 259
260 261
262 263
262 264
262 274
262 275
262 276
262 277
264 265
264 274
264 275
264 276
264 277
266 267
268 269
270 271
272 273
274 275
276 277
